p tdp 98 97
55 79
26 57
9 39
19 37
78 31
74 10
34 2
6 46
62 63
28 5
32 30
22 96
76 21
55 49
5 56
28 62
96 42
40 34
77 24
51 81
50 6
64 68
80 64
76 37
91 90
85 17
98 29
4 14
59 61
72 16
43 39
44 23
38 40
25 98
15 58
66 35
69 22
88 15
73 94
64 79
97 3
26 6
76 71
87 23
30 10
32 95
3 12
21 74
67 85
81 82
36 45
12 43
84 47
64 19
92 23
93 7
48 56
1 44
60 70
84 53
85 65
33 37
66 79
24 6
13 20
20 22
86 70
94 14
36 54
39 81
75 94
47 16
60 11
89 38
84 18
11 72
7 64
89 78
8 70
2 61
83 89
25 27
52 5
54 17
20 58
3 47
91 41
1 95
14 46
66 50
98 68
41 88
55 56
35 85
22 40
74 20
70 59
